NAME : zqloutput/eax-hard-simple-rescaleandround/50-3.tsp
TYPE : TSP
DIMENSION : 50
EDGE_WEIGHT_TYPE : EUC_2D
NODE_COORD_SECTION
1 110251 312056
2 561477 655480
3 69058 671161
4 866266 179696
5 965073 564846
6 654953 243311
7 75637 290184
8 901026 957745
9 127147 676946
10 799162 860661
11 755710 719703
12 827260 714416
13 466260 978470
14 323789 499278
15 270996 703798
16 758775 574961
17 83785 484223
18 886035 398233
19 722092 528358
20 984655 738512
21 988503 469464
22 60086 910385
23 548900 868659
24 806175 193786
25 961282 401450
26 499684 812267
27 828293 963659
28 630954 567703
29 639603 288241
30 462934 610181
31 320471 898818
32 836157 450937
33 272591 665702
34 508224 762042
35 117819 61554
36 406167 34955
37 839268 965905
38 419195 764877
39 597637 521106
40 665545 923710
41 112238 681888
42 885479 560102
43 460500 11668
44 334086 422628
45 325543 825210
46 984763 166319
47 975564 547083
48 733303 780296
49 404480 58869
50 885204 906229
EOF
